in4 te8                                 
   1.00000000000000     
     8.5477428737871559   -0.0000000000000000    0.0000000000000000
     0.0000000000000000    8.5477428737871559    0.0000000000000000
     0.0000000000000000    0.0000000000000000    7.1273432792558040
   In   Te
     2     4
Direct
  0.5000000000000000  0.5000000000000000  0.2500000000000000
  0.5000000000000000  0.5000000000000000  0.7500000000000000
  0.6811031220464822  0.6811031090464846  0.0000000000000000
  0.3188968909535153  0.3188968909535153  0.0000000000000000
  0.3188968909535153  0.6811031090464846  0.5000000000000000
  0.6811031220464822  0.3188968909535153  0.5000000000000000
 
  0.00000000E+00  0.00000000E+00  0.00000000E+00
  0.00000000E+00  0.00000000E+00  0.00000000E+00
  0.00000000E+00  0.00000000E+00  0.00000000E+00
  0.00000000E+00  0.00000000E+00  0.00000000E+00
  0.00000000E+00  0.00000000E+00  0.00000000E+00
  0.00000000E+00  0.00000000E+00  0.00000000E+00
