SYSTEM = InTe wire
NCORE  = 8

ALGO   = Fast
PREC   = Accurate
EDIFF  = 1e-4
ENCUT  = 520

IBRION = 2
ISIF   = 3
ICHARG = 1

ISMEAR = 0
SIGMA  = 0.05

ISPIN  = 2
LORBIT = 11

ADDGRID = True
LREAL  = False
LWAVE  = True

NELM   = 100
NSW    = 1000

NWRITE = 1
LCHARG = False
