SYSTEM  = InTe
NCORE   = 8

ICHARG  = 11

ENCUT   = 520
ALGO    = Fast
IBRION  = -1

EDIFF   = 1.0e-05
LREAL   = .FALSE.

ISPIN = 2
ISMEAR  = 0
SIGMA   = 0.05

PREC    = Accurate
ADDGRID = .TRUE.

NWRITE  = 1
LCHARG  = .FALSE.
LWAVE   = .FALSE.
