in8 te8                                 
   1.00000000000000     
     8.6224365210430687    0.0000000000000000    0.0000000000000000
     0.0000000000000000    8.6224365210430687    0.0000000000000000
     0.0000000000000000    0.0000000000000000    7.2241522103156512
   In   Te
     8     8
Direct
  0.0000000000000000  0.0000000000000000  0.2500000000000000
  0.0000000000000000  0.0000000000000000  0.7500000000000000
  0.5000000000000000  0.5000000000000000  0.7500000000000000
  0.5000000000000000  0.5000000000000000  0.2500000000000000
  0.0000000000000000  0.5000000000000000  0.2500000000000000
  0.0000000000000000  0.5000000000000000  0.7500000000000000
  0.5000000000000000  0.0000000000000000  0.2500000000000000
  0.5000000000000000  0.0000000000000000  0.7500000000000000
  0.1820001958467756  0.6820001828467781  0.0000000000000000
  0.8179998171532219  0.3179998171532219  0.0000000000000000
  0.3179998171532219  0.1820001958467756  0.0000000000000000
  0.6820001828467781  0.8179998171532219  0.0000000000000000
  0.8179998171532219  0.6820001828467781  0.5000000000000000
  0.1820001958467756  0.3179998171532219  0.5000000000000000
  0.6820001828467781  0.1820001958467756  0.5000000000000000
  0.3179998171532219  0.8179998171532219  0.5000000000000000
 
  0.00000000E+00  0.00000000E+00  0.00000000E+00
  0.00000000E+00  0.00000000E+00  0.00000000E+00
  0.00000000E+00  0.00000000E+00  0.00000000E+00
  0.00000000E+00  0.00000000E+00  0.00000000E+00
  0.00000000E+00  0.00000000E+00  0.00000000E+00
  0.00000000E+00  0.00000000E+00  0.00000000E+00
  0.00000000E+00  0.00000000E+00  0.00000000E+00
  0.00000000E+00  0.00000000E+00  0.00000000E+00
  0.00000000E+00  0.00000000E+00  0.00000000E+00
  0.00000000E+00  0.00000000E+00  0.00000000E+00
  0.00000000E+00  0.00000000E+00  0.00000000E+00
  0.00000000E+00  0.00000000E+00  0.00000000E+00
  0.00000000E+00  0.00000000E+00  0.00000000E+00
  0.00000000E+00  0.00000000E+00  0.00000000E+00
  0.00000000E+00  0.00000000E+00  0.00000000E+00
  0.00000000E+00  0.00000000E+00  0.00000000E+00
