in8 te8
1.0
        8.6274337769         0.0000000000         0.0000000000
        0.0000000000         8.6274337769         0.0000000000
        0.0000000000         0.0000000000         7.2267169952
   In   Te
    8    8
Direct
    -0.000000000        -0.000000000         0.250000000
    -0.000000000        -0.000000000         0.750000000
     0.500000000         0.500000000         0.750000000
     0.500000000         0.500000000         0.250000000
    -0.000000000         0.500000000         0.250000000
    -0.000000000         0.500000000         0.750000000
     0.500000000        -0.000000000         0.250000000
     0.500000000        -0.000000000         0.750000000
     0.182042003         0.682041990         0.000000000
     0.817958010         0.317958010         0.000000000
     0.317958010         0.182042003         0.000000000
     0.682041990         0.817958010         0.000000000
     0.817958010         0.682041990         0.500000000
     0.182042003         0.317958010         0.500000000
     0.682041990         0.182042003         0.500000000
     0.317958010         0.817958010         0.500000000
