TET (tetragonal) G-X-M-G-Z-R-A-Z  X-R  M-A
16   ! 16 grids 
Line-mode
reciprocal
   0.000   0.000   0.000   ! \Gamma
   0.000   0.500   0.000   ! X
 
   0.000   0.500   0.000   ! X
   0.500   0.500   0.000   ! M
 
   0.500   0.500   0.000   ! M
   0.000   0.000   0.000   ! \Gamma
 
   0.000   0.000   0.000   ! \Gamma
   0.000   0.000   0.500   ! Z
 
   0.000   0.000   0.500   ! Z
   0.000   0.500   0.500   ! R
 
   0.000   0.500   0.500   ! R
   0.500   0.500   0.500   ! A
 
   0.500   0.500   0.500   ! A
   0.000   0.000   0.500   ! Z
 
   0.000   0.500   0.000   ! X
   0.000   0.500   0.500   ! R
 
   0.500   0.500   0.000   ! M
   0.500   0.500   0.500   ! A

